unsat
(define-fun q1 () Bool false)
(define-fun q2 () Bool true)
(define-fun g1 ((x Obj)) Bool (labelOf x refrigerator))
(define-fun g2 ((x Obj)) Bool (labelOf x sink))
(define-fun f ((x1 Obj) (x2 Obj)) Bool (labelOf x2 sink))
(define-fun c1 () Bool false)
(define-fun c2 () Bool false)
(define-fun c3 () Bool true)
573.17user 19.26system 9:52.44elapsed 99%CPU (0avgtext+0avgdata 503788maxresident)k
0inputs+0outputs (0major+123173minor)pagefaults 0swaps
kitchen_abc-1.22.1d
